# hf/sto-3g

test

0 1
1 Ti 0.000000000 1.582589625 1.103360000
2 Ti 3.811873000 1.582589625 1.103360000
3 Ti 1.905936500 6.826123112 1.103360000
4 Ti 5.717809500 6.826123112 1.103360000
5 Ti 1.905936500 3.857984970 1.991120000
6 Ti 5.717809500 3.857984970 1.991120000
7 Ti 0.000000000 9.101486995 1.991120000
8 Ti 3.811873000 9.101486995 1.991120000
9 Ti 0.000000000 0.197041107 4.654480000
10 Ti 3.811873000 0.197041107 4.654480000
11 Ti 1.905936500 5.440574594 4.654480000
12 Ti 5.717809500 5.440574594 4.654480000
13 Ti 1.905936500 2.472404991 5.542280000
14 Ti 5.717809500 2.472404991 5.542280000
15 Ti 0.000000000 7.715938478 5.542280000
16 Ti 3.811873000 7.715938478 5.542280000
17 Ti 0.001555244 9.267444498 8.306720000
18 Ti 3.799918966 9.287107710 8.343960000
19 Ti 1.900111958 4.060783465 8.320600000
20 Ti 5.717779005 4.028032420 8.342800000
21 Ti 1.895110781 1.204017751 9.007720000
22 Ti 5.711405553 1.181869110 9.011760000
23 Ti 0.013051853 6.436948835 9.135400000
24 Ti 3.827608412 6.433204959 8.996280000
25 O 0.000000000 10.198568339 0.373320000
26 O 3.811873000 10.198568339 0.373320000
27 O 1.905936500 4.955034852 0.373320000
28 O 5.717809500 4.955034852 0.373320000
29 O 1.905936500 1.986896709 1.261080000
30 O 5.717809500 1.986896709 1.261080000
31 O 0.000000000 7.230430196 1.261080000
32 O 3.811873000 7.230430196 1.261080000
33 O 0.000000000 3.453677885 1.833400000
34 O 3.811873000 3.453677885 1.833400000
35 O 1.905936500 8.697211372 1.833400000
36 O 5.717809500 8.697211372 1.833400000
37 O 1.905936500 5.729041769 2.721160000
38 O 5.717809500 5.729041769 2.721160000
39 O 0.000000000 0.485508282 2.721160000
40 O 3.811873000 0.485508282 2.721160000
41 O 0.000000000 8.813019821 3.924440000
42 O 3.811873000 8.813019821 3.924440000
43 O 1.905936500 3.569486334 3.924440000
44 O 5.717809500 3.569486334 3.924440000
45 O 1.905936500 0.601348192 4.812240000
46 O 5.717809500 0.601348192 4.812240000
47 O 0.000000000 5.844850218 4.812240000
48 O 3.811873000 5.844850218 4.812240000
49 O 0.000000000 2.068129368 5.384520000
50 O 3.811873000 2.068129368 5.384520000
51 O 1.905936500 7.311631393 5.384520000
52 O 5.717809500 7.311631393 5.384520000
53 O 1.905936500 4.343493251 6.272320000
54 O 5.717809500 4.343493251 6.272320000
55 O 0.000000000 9.586995277 6.272320000
56 O 3.811873000 9.586995277 6.272320000
57 O 3.854626968 7.377290788 7.450040000
58 O 1.924142005 2.124759416 7.448000000
59 O 5.713204757 2.118593033 7.456520000
60 O 1.899837503 9.698965467 8.390720000
61 O 5.714455052 9.683801199 8.400480000
62 O 3.819435756 4.438442966 8.392640000
63 O 3.805926478 0.635640832 9.211120000
64 O 1.928136848 5.904878069 9.125920000
65 O 5.721865333 5.870900040 9.215880000
66 O 1.880991603 2.862365796 9.810240000
67 O 5.717961975 2.831408037 9.827400000
68 O 3.793789474 8.082397813 9.821280000
69 Ti 7.623746000 1.582589625 1.103360000
70 Ti 22.871238000 1.582589625 1.103360000
71 Ti 9.529682500 6.826123112 1.103360000
72 Ti 24.777174500 6.826123112 1.103360000
73 Ti 9.529682500 3.857984970 1.991120000
74 Ti 24.777174500 3.857984970 1.991120000
75 Ti 7.623746000 9.101486995 1.991120000
76 Ti 22.871238000 9.101486995 1.991120000
77 Ti 7.623746000 0.197041107 4.654480000
78 Ti 22.871238000 0.197041107 4.654480000
79 Ti 9.529682500 5.440574594 4.654480000
80 Ti 24.777174500 5.440574594 4.654480000
81 Ti 9.529682500 2.472404991 5.542280000
82 Ti 24.777174500 2.472404991 5.542280000
83 Ti 7.623746000 7.715938478 5.542280000
84 Ti 22.871238000 7.715938478 5.542280000
85 Ti 7.617890963 9.281255938 8.346720000
86 Ti 22.865382963 9.281255938 8.346720000
87 Ti 9.530200915 4.031902140 8.343120000
88 Ti 24.777692915 4.031902140 8.343120000
89 Ti 9.526450032 1.188884944 9.015960000
90 Ti 24.773942032 1.188884944 9.015960000
91 Ti 7.614506020 6.425811592 9.008440000
92 Ti 22.861998020 6.425811592 9.008440000
93 Ti 11.435619000 1.582589625 1.103360000
94 Ti 26.683111000 1.582589625 1.103360000
95 Ti 15.247492000 1.582589625 1.103360000
96 Ti 19.059365000 1.582589625 1.103360000
97 Ti 13.341555500 6.826123112 1.103360000
98 Ti 28.589047500 6.826123112 1.103360000
99 Ti 17.153428500 6.826123112 1.103360000
100 Ti 20.965301500 6.826123112 1.103360000
101 Ti 13.341555500 3.857984970 1.991120000
102 Ti 28.589047500 3.857984970 1.991120000
103 Ti 17.153428500 3.857984970 1.991120000
104 Ti 20.965301500 3.857984970 1.991120000
105 Ti 11.435619000 9.101486995 1.991120000
106 Ti 26.683111000 9.101486995 1.991120000
107 Ti 15.247492000 9.101486995 1.991120000
108 Ti 19.059365000 9.101486995 1.991120000
109 Ti 11.435619000 0.197041107 4.654480000
110 Ti 26.683111000 0.197041107 4.654480000
111 Ti 15.247492000 0.197041107 4.654480000
112 Ti 19.059365000 0.197041107 4.654480000
113 Ti 13.341555500 5.440574594 4.654480000
114 Ti 28.589047500 5.440574594 4.654480000
115 Ti 17.153428500 5.440574594 4.654480000
116 Ti 20.965301500 5.440574594 4.654480000
117 Ti 13.341555500 2.472404991 5.542280000
118 Ti 28.589047500 2.472404991 5.542280000
119 Ti 17.153428500 2.472404991 5.542280000
120 Ti 20.965301500 2.472404991 5.542280000
121 Ti 11.435619000 7.715938478 5.542280000
122 Ti 26.683111000 7.715938478 5.542280000
123 Ti 15.247492000 7.715938478 5.542280000
124 Ti 19.059365000 7.715938478 5.542280000
125 Ti 11.434887120 9.294092082 8.350560000
126 Ti 26.682379120 9.294092082 8.350560000
127 Ti 15.249047244 9.267444498 8.306720000
128 Ti 19.047410966 9.287107710 8.343960000
129 Ti 13.354851313 4.100550344 8.272920000
130 Ti 28.602343313 4.100550344 8.272920000
131 Ti 17.147603958 4.060783465 8.320600000
132 Ti 20.965271005 4.028032420 8.342800000
133 Ti 13.348233901 1.199235658 9.003640000
134 Ti 28.595725901 1.199235658 9.003640000
135 Ti 17.142602781 1.204017751 9.007720000
136 Ti 20.958897553 1.181869110 9.011760000
137 Ti 11.401922043 6.439119653 8.997280000
138 Ti 26.649414043 6.439119653 8.997280000
139 Ti 15.260543853 6.436948835 9.135400000
140 Ti 19.075100412 6.433204959 8.996280000
141 O 7.623746000 10.198568339 0.373320000
142 O 22.871238000 10.198568339 0.373320000
143 O 9.529682500 4.955034852 0.373320000
144 O 24.777174500 4.955034852 0.373320000
145 O 9.529682500 1.986896709 1.261080000
146 O 24.777174500 1.986896709 1.261080000
147 O 7.623746000 7.230430196 1.261080000
148 O 22.871238000 7.230430196 1.261080000
149 O 7.623746000 3.453677885 1.833400000
150 O 22.871238000 3.453677885 1.833400000
151 O 9.529682500 8.697211372 1.833400000
152 O 24.777174500 8.697211372 1.833400000
153 O 9.529682500 5.729041769 2.721160000
154 O 24.777174500 5.729041769 2.721160000
155 O 7.623746000 0.485508282 2.721160000
156 O 22.871238000 0.485508282 2.721160000
157 O 7.623746000 8.813019821 3.924440000
158 O 22.871238000 8.813019821 3.924440000
159 O 9.529682500 3.569486334 3.924440000
160 O 24.777174500 3.569486334 3.924440000
161 O 9.529682500 0.601348192 4.812240000
162 O 24.777174500 0.601348192 4.812240000
163 O 7.623746000 5.844850218 4.812240000
164 O 22.871238000 5.844850218 4.812240000
165 O 7.623746000 2.068129368 5.384520000
166 O 22.871238000 2.068129368 5.384520000
167 O 9.529682500 7.311631393 5.384520000
168 O 24.777174500 7.311631393 5.384520000
169 O 9.529682500 4.343493251 6.272320000
170 O 24.777174500 4.343493251 6.272320000
171 O 7.623746000 9.586995277 6.272320000
172 O 22.871238000 9.586995277 6.272320000
173 O 7.618195913 7.365650167 7.455400000
174 O 22.865687913 7.365650167 7.455400000
175 O 9.531268239 2.122494214 7.458480000
176 O 24.778760239 2.122494214 7.458480000
177 O 9.532183089 9.689841737 8.412440000
178 O 24.779675089 9.689841737 8.412440000
179 O 7.619537692 4.442123919 8.390280000
180 O 22.867029692 4.442123919 8.390280000
181 O 7.620422047 0.634004853 9.207440000
182 O 22.867914047 0.634004853 9.207440000
183 O 9.515136393 5.875052910 9.220360000
184 O 24.762628393 5.875052910 9.220360000
185 O 9.524223898 2.837605881 9.831640000
186 O 24.771715898 2.837605881 9.831640000
187 O 7.619202247 8.080038228 9.823720000
188 O 22.866694247 8.080038228 9.823720000
189 O 11.435619000 10.198568339 0.373320000
190 O 26.683111000 10.198568339 0.373320000
191 O 15.247492000 10.198568339 0.373320000
192 O 19.059365000 10.198568339 0.373320000
193 O 13.341555500 4.955034852 0.373320000
194 O 28.589047500 4.955034852 0.373320000
195 O 17.153428500 4.955034852 0.373320000
196 O 20.965301500 4.955034852 0.373320000
197 O 13.341555500 1.986896709 1.261080000
198 O 28.589047500 1.986896709 1.261080000
199 O 17.153428500 1.986896709 1.261080000
200 O 20.965301500 1.986896709 1.261080000
201 O 11.435619000 7.230430196 1.261080000
202 O 26.683111000 7.230430196 1.261080000
203 O 15.247492000 7.230430196 1.261080000
204 O 19.059365000 7.230430196 1.261080000
205 O 11.435619000 3.453677885 1.833400000
206 O 26.683111000 3.453677885 1.833400000
207 O 15.247492000 3.453677885 1.833400000
208 O 19.059365000 3.453677885 1.833400000
209 O 13.341555500 8.697211372 1.833400000
210 O 28.589047500 8.697211372 1.833400000
211 O 17.153428500 8.697211372 1.833400000
212 O 20.965301500 8.697211372 1.833400000
213 O 13.341555500 5.729041769 2.721160000
214 O 28.589047500 5.729041769 2.721160000
215 O 17.153428500 5.729041769 2.721160000
216 O 20.965301500 5.729041769 2.721160000
217 O 11.435619000 0.485508282 2.721160000
218 O 26.683111000 0.485508282 2.721160000
219 O 15.247492000 0.485508282 2.721160000
220 O 19.059365000 0.485508282 2.721160000
221 O 11.435619000 8.813019821 3.924440000
222 O 26.683111000 8.813019821 3.924440000
223 O 15.247492000 8.813019821 3.924440000
224 O 19.059365000 8.813019821 3.924440000
225 O 13.341555500 3.569486334 3.924440000
226 O 28.589047500 3.569486334 3.924440000
227 O 17.153428500 3.569486334 3.924440000
228 O 20.965301500 3.569486334 3.924440000
229 O 13.341555500 0.601348192 4.812240000
230 O 28.589047500 0.601348192 4.812240000
231 O 17.153428500 0.601348192 4.812240000
232 O 20.965301500 0.601348192 4.812240000
233 O 11.435619000 5.844850218 4.812240000
234 O 26.683111000 5.844850218 4.812240000
235 O 15.247492000 5.844850218 4.812240000
236 O 19.059365000 5.844850218 4.812240000
237 O 11.435619000 2.068129368 5.384520000
238 O 26.683111000 2.068129368 5.384520000
239 O 15.247492000 2.068129368 5.384520000
240 O 19.059365000 2.068129368 5.384520000
241 O 13.341555500 7.311631393 5.384520000
242 O 28.589047500 7.311631393 5.384520000
243 O 17.153428500 7.311631393 5.384520000
244 O 20.965301500 7.311631393 5.384520000
245 O 13.341555500 4.343493251 6.272320000
246 O 28.589047500 4.343493251 6.272320000
247 O 17.153428500 4.343493251 6.272320000
248 O 20.965301500 4.343493251 6.272320000
249 O 11.435619000 9.586995277 6.272320000
250 O 26.683111000 9.586995277 6.272320000
251 O 15.247492000 9.586995277 6.272320000
252 O 19.059365000 9.586995277 6.272320000
253 O 11.386003661 7.385596529 7.453320000
254 O 26.633495661 7.385596529 7.453320000
255 O 15.239197364 7.374364903 7.488200000
256 O 30.486689364 7.374364903 7.488200000
257 O 19.102118968 7.377290788 7.450040000
258 O 13.310054182 2.132719084 7.456760000
259 O 28.557546182 2.132719084 7.456760000
260 O 17.171634005 2.124759416 7.448000000
261 O 20.960696757 2.118593033 7.456520000
262 O 13.337408182 9.731338978 8.392880000
263 O 28.584900182 9.731338978 8.392880000
264 O 17.147329503 9.698965467 8.390720000
265 O 20.961947052 9.683801199 8.400480000
266 O 11.417230525 4.437467670 8.397280000
267 O 26.664722525 4.437467670 8.397280000
268 O 15.242155378 4.464775938 8.326440000
269 O 30.489647378 4.464775938 8.326440000
270 O 19.066927756 4.438442966 8.392640000
271 O 11.436167910 0.650773640 9.220600000
272 O 26.683659910 0.650773640 9.220600000
273 O 15.243680127 0.664616540 9.191640000
274 O 30.491172127 0.664616540 9.191640000
275 O 19.053418478 0.635640832 9.211120000
276 O 13.300051827 5.899592598 9.107800000
277 O 28.547543827 5.899592598 9.107800000
278 O 17.175628848 5.904878069 9.125920000
279 O 20.969357333 5.870900040 9.215880000
280 O 13.388304310 2.884105443 9.831600000
281 O 28.635796310 2.884105443 9.831600000
282 O 17.128483603 2.862365796 9.810240000
283 O 20.965453975 2.831408037 9.827400000
284 O 11.458032813 8.086645067 9.825200000
285 O 26.705524813 8.086645067 9.825200000
286 O 15.240173204 8.146012234 9.830640000
287 O 30.487665204 8.146012234 9.830640000
288 O 19.041281474 8.082397813 9.821280000
289 Ti 0.000000000 12.069656599 1.103360000
290 Ti 0.000000000 22.556692112 1.103360000
291 Ti 3.811873000 12.069656599 1.103360000
292 Ti 3.811873000 22.556692112 1.103360000
293 Ti 1.905936500 17.313158625 1.103360000
294 Ti 1.905936500 27.800225599 1.103360000
295 Ti 5.717809500 17.313158625 1.103360000
296 Ti 5.717809500 27.800225599 1.103360000
297 Ti 1.905936500 14.345020482 1.991120000
298 Ti 1.905936500 24.832055995 1.991120000
299 Ti 5.717809500 14.345020482 1.991120000
300 Ti 5.717809500 24.832055995 1.991120000
301 Ti 0.000000000 19.588522508 1.991120000
302 Ti 0.000000000 30.075589482 1.991120000
303 Ti 3.811873000 19.588522508 1.991120000
304 Ti 3.811873000 30.075589482 1.991120000
305 Ti 0.000000000 10.684076620 4.654480000
306 Ti 0.000000000 21.171143594 4.654480000
307 Ti 3.811873000 10.684076620 4.654480000
308 Ti 3.811873000 21.171143594 4.654480000
309 Ti 1.905936500 15.927610107 4.654480000
310 Ti 1.905936500 26.414677081 4.654480000
311 Ti 5.717809500 15.927610107 4.654480000
312 Ti 5.717809500 26.414677081 4.654480000
313 Ti 1.905936500 12.959440504 5.542280000
314 Ti 1.905936500 23.446507478 5.542280000
315 Ti 5.717809500 12.959440504 5.542280000
316 Ti 5.717809500 23.446507478 5.542280000
317 Ti 0.000000000 18.202973991 5.542280000
318 Ti 0.000000000 28.690040965 5.542280000
319 Ti 3.811873000 18.202973991 5.542280000
320 Ti 3.811873000 28.690040965 5.542280000
321 Ti 0.001555244 19.754511472 8.306720000
322 Ti 0.001555244 30.241546985 8.306720000
323 Ti 3.799918966 19.774174684 8.343960000
324 Ti 3.799918966 30.261210197 8.343960000
325 Ti 1.900111958 14.547818978 8.320600000
326 Ti 1.900111958 25.034854491 8.320600000
327 Ti 5.717779005 14.515067933 8.342800000
328 Ti 5.717779005 25.002103446 8.342800000
329 Ti 1.895110781 11.691053264 9.007720000
330 Ti 1.895110781 22.178120238 9.007720000
331 Ti 5.711405553 11.668904623 9.011760000
332 Ti 5.711405553 22.155940136 9.011760000
333 Ti 0.013051853 16.923984348 9.135400000
334 Ti 0.013051853 27.411019861 9.135400000
335 Ti 3.827608412 16.920240472 8.996280000
336 Ti 3.827608412 27.407275985 8.996280000
337 O 0.000000000 20.685603852 0.373320000
338 O 0.000000000 31.172670826 0.373320000
339 O 3.811873000 20.685603852 0.373320000
340 O 3.811873000 31.172670826 0.373320000
341 O 1.905936500 15.442070365 0.373320000
342 O 1.905936500 25.929137339 0.373320000
343 O 5.717809500 15.442070365 0.373320000
344 O 5.717809500 25.929137339 0.373320000
345 O 1.905936500 12.473932222 1.261080000
346 O 1.905936500 22.960999196 1.261080000
347 O 5.717809500 12.473932222 1.261080000
348 O 5.717809500 22.960999196 1.261080000
349 O 0.000000000 17.717465709 1.261080000
350 O 0.000000000 28.204501222 1.261080000
351 O 3.811873000 17.717465709 1.261080000
352 O 3.811873000 28.204501222 1.261080000
353 O 0.000000000 13.940713398 1.833400000
354 O 0.000000000 24.427748911 1.833400000
355 O 3.811873000 13.940713398 1.833400000
356 O 3.811873000 24.427748911 1.833400000
357 O 1.905936500 19.184246885 1.833400000
358 O 1.905936500 29.671282398 1.833400000
359 O 5.717809500 19.184246885 1.833400000
360 O 5.717809500 29.671282398 1.833400000
361 O 1.905936500 16.216077282 2.721160000
362 O 1.905936500 26.703144256 2.721160000
363 O 5.717809500 16.216077282 2.721160000
364 O 5.717809500 26.703144256 2.721160000
365 O 0.000000000 10.972575256 2.721160000
366 O 0.000000000 21.459610769 2.721160000
367 O 3.811873000 10.972575256 2.721160000
368 O 3.811873000 21.459610769 2.721160000
369 O 0.000000000 19.300055334 3.924440000
370 O 0.000000000 29.787122308 3.924440000
371 O 3.811873000 19.300055334 3.924440000
372 O 3.811873000 29.787122308 3.924440000
373 O 1.905936500 14.056521847 3.924440000
374 O 1.905936500 24.543588821 3.924440000
375 O 5.717809500 14.056521847 3.924440000
376 O 5.717809500 24.543588821 3.924440000
377 O 1.905936500 11.088383705 4.812240000
378 O 1.905936500 21.575419218 4.812240000
379 O 5.717809500 11.088383705 4.812240000
380 O 5.717809500 21.575419218 4.812240000
381 O 0.000000000 16.331917192 4.812240000
382 O 0.000000000 26.818952705 4.812240000
383 O 3.811873000 16.331917192 4.812240000
384 O 3.811873000 26.818952705 4.812240000
385 O 0.000000000 12.555164881 5.384520000
386 O 0.000000000 23.042200393 5.384520000
387 O 3.811873000 12.555164881 5.384520000
388 O 3.811873000 23.042200393 5.384520000
389 O 1.905936500 17.798698368 5.384520000
390 O 1.905936500 28.285733881 5.384520000
391 O 5.717809500 17.798698368 5.384520000
392 O 5.717809500 28.285733881 5.384520000
393 O 1.905936500 14.830528764 6.272320000
394 O 1.905936500 25.317595738 6.272320000
395 O 5.717809500 14.830528764 6.272320000
396 O 5.717809500 25.317595738 6.272320000
397 O 0.000000000 20.074062251 6.272320000
398 O 0.000000000 30.561097764 6.272320000
399 O 3.811873000 20.074062251 6.272320000
400 O 3.811873000 30.561097764 6.272320000
401 O 3.854626968 17.864326301 7.450040000
402 O 3.854626968 28.351361814 7.450040000
403 O 1.924142005 12.611826390 7.448000000
404 O 1.924142005 23.098861903 7.448000000
405 O 5.713204757 12.605628546 7.456520000
406 O 5.713204757 23.092695520 7.456520000
407 O 1.899837503 20.186000980 8.390720000
408 O 1.899837503 30.673036493 8.390720000
409 O 5.714455052 20.170868173 8.400480000
410 O 5.714455052 30.657903686 8.400480000
411 O 3.819435756 14.925509940 8.392640000
412 O 3.819435756 25.412545453 8.392640000
413 O 3.805926478 11.122676345 9.211120000
414 O 3.805926478 21.609711858 9.211120000
415 O 1.928136848 16.391913582 9.125920000
416 O 1.928136848 26.878980556 9.125920000
417 O 5.721865333 16.357935553 9.215880000
418 O 5.721865333 26.844971066 9.215880000
419 O 1.880991603 13.349432770 9.810240000
420 O 1.880991603 23.836468283 9.810240000
421 O 5.717961975 13.318443550 9.827400000
422 O 5.717961975 23.805510524 9.827400000
423 O 3.793789474 18.569433326 9.821280000
424 O 3.793789474 29.056500300 9.821280000
425 Ti 7.623746000 12.069656599 1.103360000
426 Ti 7.623746000 22.556692112 1.103360000
427 Ti 22.871238000 12.069656599 1.103360000
428 Ti 22.871238000 22.556692112 1.103360000
429 Ti 9.529682500 17.313158625 1.103360000
430 Ti 9.529682500 27.800225599 1.103360000
431 Ti 24.777174500 17.313158625 1.103360000
432 Ti 24.777174500 27.800225599 1.103360000
433 Ti 9.529682500 14.345020482 1.991120000
434 Ti 9.529682500 24.832055995 1.991120000
435 Ti 24.777174500 14.345020482 1.991120000
436 Ti 24.777174500 24.832055995 1.991120000
437 Ti 7.623746000 19.588522508 1.991120000
438 Ti 7.623746000 30.075589482 1.991120000
439 Ti 22.871238000 19.588522508 1.991120000
440 Ti 22.871238000 30.075589482 1.991120000
441 Ti 7.623746000 10.684076620 4.654480000
442 Ti 7.623746000 21.171143594 4.654480000
443 Ti 22.871238000 10.684076620 4.654480000
444 Ti 22.871238000 21.171143594 4.654480000
445 Ti 9.529682500 15.927610107 4.654480000
446 Ti 9.529682500 26.414677081 4.654480000
447 Ti 24.777174500 15.927610107 4.654480000
448 Ti 24.777174500 26.414677081 4.654480000
449 Ti 9.529682500 12.959440504 5.542280000
450 Ti 9.529682500 23.446507478 5.542280000
451 Ti 24.777174500 12.959440504 5.542280000
452 Ti 24.777174500 23.446507478 5.542280000
453 Ti 7.623746000 18.202973991 5.542280000
454 Ti 7.623746000 28.690040965 5.542280000
455 Ti 22.871238000 18.202973991 5.542280000
456 Ti 22.871238000 28.690040965 5.542280000
457 Ti 7.617890963 19.768291451 8.346720000
458 Ti 7.617890963 30.255326964 8.346720000
459 Ti 22.865382963 19.768291451 8.346720000
460 Ti 22.865382963 30.255326964 8.346720000
461 Ti 9.530200915 14.518937653 8.343120000
462 Ti 9.530200915 25.006004627 8.343120000
463 Ti 24.777692915 14.518937653 8.343120000
464 Ti 24.777692915 25.006004627 8.343120000
465 Ti 9.526450032 11.675920457 9.015960000
466 Ti 9.526450032 22.162955970 9.015960000
467 Ti 24.773942032 11.675920457 9.015960000
468 Ti 24.773942032 22.162955970 9.015960000
469 Ti 7.614506020 16.912878566 9.008440000
470 Ti 7.614506020 27.399914079 9.008440000
471 Ti 22.861998020 16.912878566 9.008440000
472 Ti 22.861998020 27.399914079 9.008440000
473 Ti 11.435619000 12.069656599 1.103360000
474 Ti 11.435619000 22.556692112 1.103360000
475 Ti 26.683111000 12.069656599 1.103360000
476 Ti 26.683111000 22.556692112 1.103360000
477 Ti 15.247492000 12.069656599 1.103360000
478 Ti 15.247492000 22.556692112 1.103360000
479 Ti 19.059365000 12.069656599 1.103360000
480 Ti 19.059365000 22.556692112 1.103360000
481 Ti 13.341555500 17.313158625 1.103360000
482 Ti 13.341555500 27.800225599 1.103360000
483 Ti 28.589047500 17.313158625 1.103360000
484 Ti 28.589047500 27.800225599 1.103360000
485 Ti 17.153428500 17.313158625 1.103360000
486 Ti 17.153428500 27.800225599 1.103360000
487 Ti 20.965301500 17.313158625 1.103360000
488 Ti 20.965301500 27.800225599 1.103360000
489 Ti 13.341555500 14.345020482 1.991120000
490 Ti 13.341555500 24.832055995 1.991120000
491 Ti 28.589047500 14.345020482 1.991120000
492 Ti 28.589047500 24.832055995 1.991120000
493 Ti 17.153428500 14.345020482 1.991120000
494 Ti 17.153428500 24.832055995 1.991120000
495 Ti 20.965301500 14.345020482 1.991120000
496 Ti 20.965301500 24.832055995 1.991120000
497 Ti 11.435619000 19.588522508 1.991120000
498 Ti 11.435619000 30.075589482 1.991120000
499 Ti 26.683111000 19.588522508 1.991120000
500 Ti 26.683111000 30.075589482 1.991120000
501 Ti 15.247492000 19.588522508 1.991120000
502 Ti 15.247492000 30.075589482 1.991120000
503 Ti 19.059365000 19.588522508 1.991120000
504 Ti 19.059365000 30.075589482 1.991120000
505 Ti 11.435619000 10.684076620 4.654480000
506 Ti 11.435619000 21.171143594 4.654480000
507 Ti 26.683111000 10.684076620 4.654480000
508 Ti 26.683111000 21.171143594 4.654480000
509 Ti 15.247492000 10.684076620 4.654480000
510 Ti 15.247492000 21.171143594 4.654480000
511 Ti 19.059365000 10.684076620 4.654480000
512 Ti 19.059365000 21.171143594 4.654480000
513 Ti 13.341555500 15.927610107 4.654480000
514 Ti 13.341555500 26.414677081 4.654480000
515 Ti 28.589047500 15.927610107 4.654480000
516 Ti 28.589047500 26.414677081 4.654480000
517 Ti 17.153428500 15.927610107 4.654480000
518 Ti 17.153428500 26.414677081 4.654480000
519 Ti 20.965301500 15.927610107 4.654480000
520 Ti 20.965301500 26.414677081 4.654480000
521 Ti 13.341555500 12.959440504 5.542280000
522 Ti 13.341555500 23.446507478 5.542280000
523 Ti 28.589047500 12.959440504 5.542280000
524 Ti 28.589047500 23.446507478 5.542280000
525 Ti 17.153428500 12.959440504 5.542280000
526 Ti 17.153428500 23.446507478 5.542280000
527 Ti 20.965301500 12.959440504 5.542280000
528 Ti 20.965301500 23.446507478 5.542280000
529 Ti 11.435619000 18.202973991 5.542280000
530 Ti 11.435619000 28.690040965 5.542280000
531 Ti 26.683111000 18.202973991 5.542280000
532 Ti 26.683111000 28.690040965 5.542280000
533 Ti 15.247492000 18.202973991 5.542280000
534 Ti 15.247492000 28.690040965 5.542280000
535 Ti 19.059365000 18.202973991 5.542280000
536 Ti 19.059365000 28.690040965 5.542280000
537 Ti 11.434887120 19.781127595 8.350560000
538 Ti 11.434887120 30.268194569 8.350560000
539 Ti 26.682379120 19.781127595 8.350560000
540 Ti 26.682379120 30.268194569 8.350560000
541 Ti 15.249047244 19.754511472 8.306720000
542 Ti 15.249047244 30.241546985 8.306720000
543 Ti 19.047410966 19.774174684 8.343960000
544 Ti 19.047410966 30.261210197 8.343960000
545 Ti 13.354851313 14.587585856 8.272920000
546 Ti 13.354851313 25.074621369 8.272920000
547 Ti 28.602343313 14.587585856 8.272920000
548 Ti 28.602343313 25.074621369 8.272920000
549 Ti 17.147603958 14.547818978 8.320600000
550 Ti 17.147603958 25.034854491 8.320600000
551 Ti 20.965271005 14.515067933 8.342800000
552 Ti 20.965271005 25.002103446 8.342800000
553 Ti 13.348233901 11.686271171 9.003640000
554 Ti 13.348233901 22.173306684 9.003640000
555 Ti 28.595725901 11.686271171 9.003640000
556 Ti 28.595725901 22.173306684 9.003640000
557 Ti 17.142602781 11.691053264 9.007720000
558 Ti 17.142602781 22.178120238 9.007720000
559 Ti 20.958897553 11.668904623 9.011760000
560 Ti 20.958897553 22.155940136 9.011760000
561 Ti 11.401922043 16.926186627 8.997280000
562 Ti 11.401922043 27.413222140 8.997280000
563 Ti 26.649414043 16.926186627 8.997280000
564 Ti 26.649414043 27.413222140 8.997280000
565 Ti 15.260543853 16.923984348 9.135400000
566 Ti 15.260543853 27.411019861 9.135400000
567 Ti 19.075100412 16.920240472 8.996280000
568 Ti 19.075100412 27.407275985 8.996280000
569 O 7.623746000 20.685603852 0.373320000
570 O 7.623746000 31.172670826 0.373320000
571 O 22.871238000 20.685603852 0.373320000
572 O 22.871238000 31.172670826 0.373320000
573 O 9.529682500 15.442070365 0.373320000
574 O 9.529682500 25.929137339 0.373320000
575 O 24.777174500 15.442070365 0.373320000
576 O 24.777174500 25.929137339 0.373320000
577 O 9.529682500 12.473932222 1.261080000
578 O 9.529682500 22.960999196 1.261080000
579 O 24.777174500 12.473932222 1.261080000
580 O 24.777174500 22.960999196 1.261080000
581 O 7.623746000 17.717465709 1.261080000
582 O 7.623746000 28.204501222 1.261080000
583 O 22.871238000 17.717465709 1.261080000
584 O 22.871238000 28.204501222 1.261080000
585 O 7.623746000 13.940713398 1.833400000
586 O 7.623746000 24.427748911 1.833400000
587 O 22.871238000 13.940713398 1.833400000
588 O 22.871238000 24.427748911 1.833400000
589 O 9.529682500 19.184246885 1.833400000
590 O 9.529682500 29.671282398 1.833400000
591 O 24.777174500 19.184246885 1.833400000
592 O 24.777174500 29.671282398 1.833400000
593 O 9.529682500 16.216077282 2.721160000
594 O 9.529682500 26.703144256 2.721160000
595 O 24.777174500 16.216077282 2.721160000
596 O 24.777174500 26.703144256 2.721160000
597 O 7.623746000 10.972575256 2.721160000
598 O 7.623746000 21.459610769 2.721160000
599 O 22.871238000 10.972575256 2.721160000
600 O 22.871238000 21.459610769 2.721160000
601 O 7.623746000 19.300055334 3.924440000
602 O 7.623746000 29.787122308 3.924440000
603 O 22.871238000 19.300055334 3.924440000
604 O 22.871238000 29.787122308 3.924440000
605 O 9.529682500 14.056521847 3.924440000
606 O 9.529682500 24.543588821 3.924440000
607 O 24.777174500 14.056521847 3.924440000
608 O 24.777174500 24.543588821 3.924440000
609 O 9.529682500 11.088383705 4.812240000
610 O 9.529682500 21.575419218 4.812240000
611 O 24.777174500 11.088383705 4.812240000
612 O 24.777174500 21.575419218 4.812240000
613 O 7.623746000 16.331917192 4.812240000
614 O 7.623746000 26.818952705 4.812240000
615 O 22.871238000 16.331917192 4.812240000
616 O 22.871238000 26.818952705 4.812240000
617 O 7.623746000 12.555164881 5.384520000
618 O 7.623746000 23.042200393 5.384520000
619 O 22.871238000 12.555164881 5.384520000
620 O 22.871238000 23.042200393 5.384520000
621 O 9.529682500 17.798698368 5.384520000
622 O 9.529682500 28.285733881 5.384520000
623 O 24.777174500 17.798698368 5.384520000
624 O 24.777174500 28.285733881 5.384520000
625 O 9.529682500 14.830528764 6.272320000
626 O 9.529682500 25.317595738 6.272320000
627 O 24.777174500 14.830528764 6.272320000
628 O 24.777174500 25.317595738 6.272320000
629 O 7.623746000 20.074062251 6.272320000
630 O 7.623746000 30.561097764 6.272320000
631 O 22.871238000 20.074062251 6.272320000
632 O 22.871238000 30.561097764 6.272320000
633 O 7.618195913 17.852685680 7.455400000
634 O 7.618195913 28.339752654 7.455400000
635 O 22.865687913 17.852685680 7.455400000
636 O 22.865687913 28.339752654 7.455400000
637 O 9.531268239 12.609529727 7.458480000
638 O 9.531268239 23.096596701 7.458480000
639 O 24.778760239 12.609529727 7.458480000
640 O 24.778760239 23.096596701 7.458480000
641 O 9.532183089 20.176877250 8.412440000
642 O 9.532183089 30.663912763 8.412440000
643 O 24.779675089 20.176877250 8.412440000
644 O 24.779675089 30.663912763 8.412440000
645 O 7.619537692 14.929159432 8.390280000
646 O 7.619537692 25.416226406 8.390280000
647 O 22.867029692 14.929159432 8.390280000
648 O 22.867029692 25.416226406 8.390280000
649 O 7.620422047 11.121040366 9.207440000
650 O 7.620422047 21.608107340 9.207440000
651 O 22.867914047 11.121040366 9.207440000
652 O 22.867914047 21.608107340 9.207440000
653 O 9.515136393 16.362119884 9.220360000
654 O 9.515136393 26.849155397 9.220360000
655 O 24.762628393 16.362119884 9.220360000
656 O 24.762628393 26.849155397 9.220360000
657 O 9.524223898 13.324672855 9.831640000
658 O 9.524223898 23.811708368 9.831640000
659 O 24.771715898 13.324672855 9.831640000
660 O 24.771715898 23.811708368 9.831640000
661 O 7.619202247 18.567105202 9.823720000
662 O 7.619202247 29.054140715 9.823720000
663 O 22.866694247 18.567105202 9.823720000
664 O 22.866694247 29.054140715 9.823720000
665 O 11.435619000 20.685603852 0.373320000
666 O 11.435619000 31.172670826 0.373320000
667 O 26.683111000 20.685603852 0.373320000
668 O 26.683111000 31.172670826 0.373320000
669 O 15.247492000 20.685603852 0.373320000
670 O 15.247492000 31.172670826 0.373320000
671 O 19.059365000 20.685603852 0.373320000
672 O 19.059365000 31.172670826 0.373320000
673 O 13.341555500 15.442070365 0.373320000
674 O 13.341555500 25.929137339 0.373320000
675 O 28.589047500 15.442070365 0.373320000
676 O 28.589047500 25.929137339 0.373320000
677 O 17.153428500 15.442070365 0.373320000
678 O 17.153428500 25.929137339 0.373320000
679 O 20.965301500 15.442070365 0.373320000
680 O 20.965301500 25.929137339 0.373320000
681 O 13.341555500 12.473932222 1.261080000
682 O 13.341555500 22.960999196 1.261080000
683 O 28.589047500 12.473932222 1.261080000
684 O 28.589047500 22.960999196 1.261080000
685 O 17.153428500 12.473932222 1.261080000
686 O 17.153428500 22.960999196 1.261080000
687 O 20.965301500 12.473932222 1.261080000
688 O 20.965301500 22.960999196 1.261080000
689 O 11.435619000 17.717465709 1.261080000
690 O 11.435619000 28.204501222 1.261080000